Route #1: 88 2 1 3 4 5 6 7 9 10 11 15 14 13 12 8
Route #2: 82 111 86 85 91 90 114 18 118 108 83 113 117 84 112 81 119 120
Route #3: 109 17 16 19 25 22 24 27 30 33 34 36 29 32 35 31 28 23 26 20 21
Route #4: 95 40 43 45 48 51 50 49 47 46 44 41 42 39 38 37
Route #5: 105 106 102 101 99 104 107 103 116 110 115 97 94 96 93 89 92 87
Route #6: 52 54 57 59 65 61 62 64 66 63 60 56 58 55 53 100
Route #7: 98 68 76 73 77 79 80 78 72 75 74 71 67 70 69
Cost 1034
